outputs/case_326.model.txt
restriction_order_approved = False
violation_of_restriction_order = False
branch_establishment_permit_granted = True
finance_institution_permit_granted = True
business_direct_contact_permitted = True
violate_restriction_order = False
violate_article_36_1_or_2 = False
penalty = False
penalty_imposed_on_institution = False
penalty_imprisonment_or_fine_1500 = False
restriction_order_issued = False
penalty_imprisonment_or_fine_100_to_1500 = False
penalty_fine_200_to_1000 = False
branch_establishment_permitted = True
repeat_violation_after_order = False
penalty_fine_100_to_1500 = False